 CSi
   1.00000000000000     
    -4.3539932475828609   -4.3539932475828609    0.0000000000000000
    -4.3539932475828609    0.0000000000000000   -4.3539932475828609
     0.0000000000000002   -4.3539932475828609   -4.3539932475828609
   C    Si
     8     8
Direct
  0.0000000000000000  0.0000000000000000  0.0000000000000000
  0.0000000000000000  0.0000000000000000  0.5000000000000000
  0.0000000000000000  0.5000000000000000  0.0000000000000000
  0.0000000000000000  0.5000000000000000  0.5000000000000000
  0.5000000000000000  0.0000000000000000  0.0000000000000000
  0.5000000000000000  0.0000000000000000  0.5000000000000000
  0.5000000000000000  0.5000000000000000  0.0000000000000000
  0.5000000000000000  0.5000000000000000  0.5000000000000000
  0.3750000000000000  0.3750000000000000  0.3750000000000000
  0.3750000000000000  0.3750000000000000  0.8750000000000000
  0.3750000000000000  0.8750000000000000  0.3750000000000000
  0.3750000000000000  0.8750000000000000  0.8750000000000000
  0.8750000000000000  0.3750000000000000  0.3750000000000000
  0.8750000000000000  0.3750000000000000  0.8750000000000000
  0.8750000000000000  0.8750000000000000  0.3750000000000000
  0.8750000000000000  0.8750000000000000  0.8750000000000000
