 C Si                                   
   1.00000000000000     
    -4.3539932475828609   -4.3539932475828609    0.0000000000000000
    -4.3539932475828609    0.0000000000000000   -4.3539932475828609
     0.0000000000000002   -4.3539932475828609   -4.3539932475828609
   C    Si
     7     8
Direct
  0.0000000000000000  0.0000000000000000  0.0000000000000000
  0.9980898390951225  0.9980898390951225  0.5019101609048775
  0.9980898390951225  0.5019101609048775  0.9980898390951225
  0.9980898390951225  0.5019101609048775  0.5019101609048775
  0.5019101609048775  0.9980898390951225  0.9980898390951225
  0.5019101609048775  0.9980898390951225  0.5019101609048775
  0.5019101609048775  0.5019101609048775  0.9980898390951225
  0.3669732600631832  0.3669732600631832  0.3669732600631832
  0.3669732600631832  0.3669732600631832  0.8990802198104504
  0.3669732600631832  0.8990802198104504  0.3669732600631832
  0.3624569427395912  0.8791810190868006  0.8791810190868006
  0.8990802198104504  0.3669732600631832  0.3669732600631832
  0.8791810190868006  0.3624569427395912  0.8791810190868006
  0.8791810190868006  0.8791810190868006  0.3624569427395912
  0.8791810190868006  0.8791810190868006  0.8791810190868006
 
  0.00000000E+00  0.00000000E+00  0.00000000E+00
  0.00000000E+00  0.00000000E+00  0.00000000E+00
  0.00000000E+00  0.00000000E+00  0.00000000E+00
  0.00000000E+00  0.00000000E+00  0.00000000E+00
  0.00000000E+00  0.00000000E+00  0.00000000E+00
  0.00000000E+00  0.00000000E+00  0.00000000E+00
  0.00000000E+00  0.00000000E+00  0.00000000E+00
  0.00000000E+00  0.00000000E+00  0.00000000E+00
  0.00000000E+00  0.00000000E+00  0.00000000E+00
  0.00000000E+00  0.00000000E+00  0.00000000E+00
  0.00000000E+00  0.00000000E+00  0.00000000E+00
  0.00000000E+00  0.00000000E+00  0.00000000E+00
  0.00000000E+00  0.00000000E+00  0.00000000E+00
  0.00000000E+00  0.00000000E+00  0.00000000E+00
  0.00000000E+00  0.00000000E+00  0.00000000E+00
